local-dp-java/sample.mps
NAME          TESTPROB
ROWS
 N  COST
 L  CXF0
 L  CXF1
 L  CXF2
 L  CXF3
 L  CXF4
 L  CXF5
 L  CXF6
 L  CXF7
 L  CXF8
 L  CXF9
 L  CXF10
 L  CXF11
 L  CXF12
 L  CXF13
 L  CXF14
 L  CXF15
 L  QLOSS
 E  CF0
 E  CF1
 E  CF2
 E  CF3
COLUMNS
    X0        COST                 1
    X0        CXF0                 1
    X0        CXF4                 1
    X0        CXF8                 1
    X0        CXF12                1
    X1        COST                 1
    X1        CXF1                 1
    X1        CXF5                 1
    X1        CXF9                 1
    X1        CXF13                1
    X2        COST                 1
    X2        CXF2                 1
    X2        CXF6                 1
    X2        CXF10                1
    X2        CXF14                1
    X3        COST                 1
    X3        CXF3                 1
    X3        CXF7                 1
    X3        CXF11                1
    X3        CXF15                1
    F0        CXF0             -0.20
    F0        CXF4             -0.80
    F0        CXF8             -0.80
    F0        CXF12            -0.40
    F0        QLOSS             0.20
    F0        CF0                  1
    F1        CXF0             -0.40
    F1        CXF4             -0.20
    F1        CXF8             -0.60
    F1        CXF12            -0.60
    F1        QLOSS             0.40
    F1        CF1                  1
    F2        CXF0             -0.90
    F2        CXF4             -0.60
    F2        CXF8             -0.30
    F2        CXF12            -1.20
    F2        QLOSS             0.90
    F2        CF2                  1
    F3        CXF0             -1.20
    F3        CXF4             -0.90
    F3        CXF8             -0.60
    F3        CXF12            -0.30
    F3        QLOSS             1.20
    F3        CF3                  1
    F4        CXF1             -0.20
    F4        CXF5             -0.80
    F4        CXF9             -0.80
    F4        CXF13            -0.40
    F4        QLOSS             0.80
    F4        CF0                  1
    F5        CXF1             -0.40
    F5        CXF5             -0.20
    F5        CXF9             -0.60
    F5        CXF13            -0.60
    F5        QLOSS             0.20
    F5        CF1                  1
    F6        CXF1             -0.90
    F6        CXF5             -0.60
    F6        CXF9             -0.30
    F6        CXF13            -1.20
    F6        QLOSS             0.60
    F6        CF2                  1
    F7        CXF1             -1.20
    F7        CXF5             -0.90
    F7        CXF9             -0.60
    F7        CXF13            -0.30
    F7        QLOSS             0.90
    F7        CF3                  1
    F8        CXF2             -0.20
    F8        CXF6             -0.80
    F8        CXF10            -0.80
    F8        CXF14            -0.40
    F8        QLOSS             0.80
    F8        CF0                  1
    F9        CXF2             -0.40
    F9        CXF6             -0.20
    F9        CXF10            -0.60
    F9        CXF14            -0.60
    F9        QLOSS             0.60
    F9        CF1                  1
    F10       CXF2             -0.90
    F10       CXF6             -0.60
    F10       CXF10            -0.30
    F10       CXF14            -1.20
    F10       QLOSS             0.30
    F10       CF2                  1
    F11       CXF2             -1.20
    F11       CXF6             -0.90
    F11       CXF10            -0.60
    F11       CXF14            -0.30
    F11       QLOSS             0.60
    F11       CF3                  1
    F12       CXF3             -0.20
    F12       CXF7             -0.80
    F12       CXF11            -0.80
    F12       CXF15            -0.40
    F12       QLOSS             0.40
    F12       CF0                  1
    F13       CXF3             -0.40
    F13       CXF7             -0.20
    F13       CXF11            -0.60
    F13       CXF15            -0.60
    F13       QLOSS             0.60
    F13       CF1                  1
    F14       CXF3             -0.90
    F14       CXF7             -0.60
    F14       CXF11            -0.30
    F14       CXF15            -1.20
    F14       QLOSS             1.20
    F14       CF2                  1
    F15       CXF3             -1.20
    F15       CXF7             -0.90
    F15       CXF11            -0.60
    F15       CXF15            -0.30
    F15       QLOSS             0.30
    F15       CF3                  1
RHS
    RHS1      CXF0                 0
    RHS1      CXF1                 0
    RHS1      CXF2                 0
    RHS1      CXF3                 0
    RHS1      CXF4                 0
    RHS1      CXF5                 0
    RHS1      CXF6                 0
    RHS1      CXF7                 0
    RHS1      CXF8                 0
    RHS1      CXF9                 0
    RHS1      CXF10                0
    RHS1      CXF11                0
    RHS1      CXF12                0
    RHS1      CXF13                0
    RHS1      CXF14                0
    RHS1      CXF15                0
    RHS1      QLOSS            80.00
    RHS1      CF0                  1
    RHS1      CF1                  1
    RHS1      CF2                  1
    RHS1      CF3                  1
BOUNDS
 LO BND1      F0                   0
 LO BND1      F4                   0
 LO BND1      F8                   0
 LO BND1      F12                  0
 LO BND1      F1                   0
 LO BND1      F5                   0
 LO BND1      F9                   0
 LO BND1      F13                  0
 LO BND1      F2                   0
 LO BND1      F6                   0
 LO BND1      F10                  0
 LO BND1      F14                  0
 LO BND1      F3                   0
 LO BND1      F7                   0
 LO BND1      F11                  0
 LO BND1      F15                  0
ENDATA
