local-dp-java/sample.sol
NAME                : TESTPROB
PROBLEM STATUS      : PRIMAL_AND_DUAL_FEASIBLE
SOLUTION STATUS     : OPTIMAL
OBJECTIVE NAME      : COST
PRIMAL OBJECTIVE    : 2.30000000e+000   
DUAL OBJECTIVE      : 2.30000000e+000   

CONSTRAINTS
INDEX      NAME           AT ACTIVITY                 LOWER LIMIT        UPPER LIMIT        DUAL LOWER               DUAL UPPER              
0          CXF0           SB -9.99999999993416e-002   NONE               0.00000000e+000    -0.00000000000000e+000   -3.42897988744450e-012  
1          CXF1           SB -9.99999999993416e-002   NONE               0.00000000e+000    -0.00000000000000e+000   -3.42897988744450e-012  
2          CXF2           SB -9.99999999993416e-002   NONE               0.00000000e+000    -0.00000000000000e+000   -3.42897988744450e-012  
3          CXF3           SB -9.99999999993416e-002   NONE               0.00000000e+000    -0.00000000000000e+000   -3.42897988744450e-012  
4          CXF4           SB -4.99999999998089e-002   NONE               0.00000000e+000    -0.00000000000000e+000   -1.84603000709882e-011  
5          CXF5           SB -4.99999999998089e-002   NONE               0.00000000e+000    -0.00000000000000e+000   -1.84603000709882e-011  
6          CXF6           SB -4.99999999998089e-002   NONE               0.00000000e+000    -0.00000000000000e+000   -1.84603000709882e-011  
7          CXF7           SB -4.99999999998089e-002   NONE               0.00000000e+000    -0.00000000000000e+000   -1.84603000709882e-011  
8          CXF8           UL -4.72832112864604e-013   NONE               0.00000000e+000    -0.00000000000000e+000   -9.99999999969926e-001  
9          CXF9           UL -4.72832112864604e-013   NONE               0.00000000e+000    -0.00000000000000e+000   -9.99999999969926e-001  
10         CXF10          UL -4.72832112864604e-013   NONE               0.00000000e+000    -0.00000000000000e+000   -9.99999999969926e-001  
11         CXF11          UL -4.72832112864604e-013   NONE               0.00000000e+000    -0.00000000000000e+000   -9.99999999969926e-001  
12         CXF12          SB -5.00000000000427e-002   NONE               0.00000000e+000    -0.00000000000000e+000   -4.88544569919300e-012  
13         CXF13          SB -5.00000000000427e-002   NONE               0.00000000e+000    -0.00000000000000e+000   -4.88544569919300e-012  
14         CXF14          SB -5.00000000000427e-002   NONE               0.00000000e+000    -0.00000000000000e+000   -4.88544569919300e-012  
15         CXF15          SB -5.00000000000427e-002   NONE               0.00000000e+000    -0.00000000000000e+000   -4.88544569919300e-012  
16         QLOSS          SB 2.50000000000003e+000    NONE               8.00000000e+001    -0.00000000000000e+000   -0.00000000000000e+000  
17         CF0            EQ 1.00000000000000e+000    1.00000000e+000    1.00000000e+000    -0.00000000000000e+000   -7.99999999992672e-001  
18         CF1            EQ 1.00000000000000e+000    1.00000000e+000    1.00000000e+000    -0.00000000000000e+000   -5.99999999989273e-001  
19         CF2            EQ 1.00000000000000e+000    1.00000000e+000    1.00000000e+000    -0.00000000000000e+000   -3.00000000010325e-001  
20         CF3            EQ 1.00000000000000e+000    1.00000000e+000    1.00000000e+000    -0.00000000000000e+000   -6.00000000003473e-001  

VARIABLES
INDEX      NAME           AT ACTIVITY                 LOWER LIMIT        UPPER LIMIT        DUAL LOWER               DUAL UPPER              
0          X0             SB 5.75000000001336e-001    0.00000000e+000    NONE               -7.03859770189269e-013   -0.00000000000000e+000  
1          X1             SB 5.75000000001336e-001    0.00000000e+000    NONE               -7.03859770189269e-013   -0.00000000000000e+000  
2          X2             SB 5.75000000001336e-001    0.00000000e+000    NONE               -7.03859770189269e-013   -0.00000000000000e+000  
3          X3             SB 5.75000000001336e-001    0.00000000e+000    NONE               -7.03859770189269e-013   -0.00000000000000e+000  
4          F0             SB 2.50000000000001e-001    0.00000000e+000    NONE               -9.79161958581161e-013   -0.00000000000000e+000  
5          F1             SB 2.50000000000001e-001    0.00000000e+000    NONE               -9.79161958611886e-013   -0.00000000000000e+000  
6          F2             SB 2.50000000000003e-001    0.00000000e+000    NONE               -9.79161958591211e-013   -0.00000000000000e+000  
7          F3             SB 2.50000000000005e-001    0.00000000e+000    NONE               -9.79161958528087e-013   -0.00000000000000e+000  
8          F4             SB 2.50000000000001e-001    0.00000000e+000    NONE               -9.79161958581161e-013   -0.00000000000000e+000  
9          F5             SB 2.50000000000001e-001    0.00000000e+000    NONE               -9.79161958611886e-013   -0.00000000000000e+000  
10         F6             SB 2.50000000000003e-001    0.00000000e+000    NONE               -9.79161958591211e-013   -0.00000000000000e+000  
11         F7             SB 2.50000000000005e-001    0.00000000e+000    NONE               -9.79161958528087e-013   -0.00000000000000e+000  
12         F8             SB 2.50000000000001e-001    0.00000000e+000    NONE               -9.79161958581161e-013   -0.00000000000000e+000  
13         F9             SB 2.50000000000001e-001    0.00000000e+000    NONE               -9.79161958611886e-013   -0.00000000000000e+000  
14         F10            SB 2.50000000000003e-001    0.00000000e+000    NONE               -9.79161958591211e-013   -0.00000000000000e+000  
15         F11            SB 2.50000000000005e-001    0.00000000e+000    NONE               -9.79161958528087e-013   -0.00000000000000e+000  
16         F12            SB 2.50000000000001e-001    0.00000000e+000    NONE               -9.79161958581161e-013   -0.00000000000000e+000  
17         F13            SB 2.50000000000001e-001    0.00000000e+000    NONE               -9.79161958611886e-013   -0.00000000000000e+000  
18         F14            SB 2.50000000000003e-001    0.00000000e+000    NONE               -9.79161958591211e-013   -0.00000000000000e+000  
19         F15            SB 2.50000000000005e-001    0.00000000e+000    NONE               -9.79161958528087e-013   -0.00000000000000e+000  
